0 31 70 30 20 66 71 35 34 9 51 33 79 3 77 76 50 1 69 27 0
0 52 7 48 19 11 62 10 32 90 63 64 49 36 47 46 8 45 17 84 5 60 83 18 89 0
0 13 2 57 15 43 42 14 38 44 86 16 61 85 91 100 37 98 93 99 59 92 97 95 94 6 0
0 53 58 40 21 73 74 22 41 75 56 23 67 39 4 25 55 54 24 29 68 80 12 26 28 0
